20J7M/DAT/20J7MNLL-19.dat
20 7
30.4357 30.4357
18.9562 18.9562
29.7667 29.7667
28.2633 28.2633
20.8449 20.8449
27.4648 27.4648
23.3823 23.3823
24.7369 24.7369
28.4986 28.4986
31.0198 31.0198
10.4675 10.4675
19.8589 19.8589
25.1887 25.1887
33.7396 33.7396
22.1386 22.1386
20.0732 20.0732
28.0528 28.0528
21.6074 21.6074
22.2942 22.2942
26.4882 26.4882
70.4683