20J7M/SOL/20J7MNLL-19.sol
solution status: optimal solution found
objective value:                              70.4683
x#1#2                                               1 	(obj:0)
x#2#4                                               1 	(obj:0)
x#3#3                                               1 	(obj:0)
x#4#6                                               1 	(obj:0)
x#5#2                               0.444468431127039 	(obj:0)
x#5#4                               0.555531568872961 	(obj:0)
x#6#1                               0.478448778072296 	(obj:0)
x#6#5                               0.521551221927704 	(obj:0)
x#7#5                                               1 	(obj:0)
x#8#6                                               1 	(obj:0)
x#9#1                                               1 	(obj:0)
x#10#1                              0.025029174914087 	(obj:0)
x#10#2                              0.278180388010237 	(obj:0)
x#10#3                              0.696790437075677 	(obj:0)
x#11#5                                              1 	(obj:0)
x#12#4                                              1 	(obj:0)
x#13#7                                              1 	(obj:0)
x#14#3                              0.482261200488444 	(obj:0)
x#14#6                              0.517732871759001 	(obj:0)
x#15#2                                              1 	(obj:0)
x#16#4                                              1 	(obj:0)
x#17#1                                              1 	(obj:0)
x#18#7                                              1 	(obj:0)
x#19#5                                              1 	(obj:0)
x#20#3                              0.106311489644446 	(obj:0)
x#20#7                              0.893688510355554 	(obj:0)
z                                             70.4683 	(obj:1)
